
<<< setup


<<< generate

Version identifier: 22.1.1.0 | 2022-11-28 | 9160aff4d
CPXPARAM_TimeLimit                               1800
Found incumbent of value 0.000000 after 0.00 sec. (0.55 ticks)
Tried aggregator 1 time.
MIP Presolve eliminated 185 rows and 0 columns.
Reduced MIP has 20930 rows, 17020 columns, and 75348 nonzeros.
Reduced MIP has 16836 binaries, 184 generals, 0 SOSs, and 0 indicators.
Presolve time = 0.01 sec. (28.10 ticks)
Probing time = 0.00 sec. (7.02 ticks)
Tried aggregator 1 time.
Detecting symmetries...
Reduced MIP has 20930 rows, 17020 columns, and 75348 nonzeros.
Reduced MIP has 16836 binaries, 184 generals, 0 SOSs, and 0 indicators.
Presolve time = 0.12 sec. (255.25 ticks)
Probing time = 0.00 sec. (7.01 ticks)
Clique table members: 2476.
MIP emphasis: balance optimality and feasibility.
MIP search method: dynamic search.
Parallel mode: deterministic, using up to 8 threads.
Root relaxation solution time = 0.18 sec. (898.61 ticks)

        Nodes                                         Cuts/
   Node  Left     Objective  IInf  Best Integer    Best Bound    ItCnt     Gap

*     0+    0                            0.0000     5000.0000              --- 
*     0+    0                         1681.0000     5000.0000           197.44%
      0     0     5000.0000  5027     1681.0000     5000.0000        4  197.44%
*     0+    0                         1721.0000     5000.0000           190.53%
      0     0     5000.0000  1265     1721.0000     Cuts: 173      430  190.53%
*     0+    0                         2875.0000     5000.0000            73.91%
      0     0     5000.0000  1330     2875.0000     Cuts: 173     1223   73.91%
*     0+    0                         4445.0000     5000.0000            12.49%
      0     0     5000.0000  1117     4445.0000     Cuts: 106     1584   12.49%
*     0+    0                         4449.0000     5000.0000            12.38%
      0     0        cutoff           4449.0000     5000.0000     1584   12.38%
      0     0     5000.0000  1027     4449.0000      Cuts: 42     1694   12.38%
      0     0     5000.0000   985     4449.0000  ZeroHalf: 35     1795   12.38%
      0     0     5000.0000   884     4449.0000      Cuts: 20     1879   12.38%
*     0+    0                         4569.0000     5000.0000             9.43%
      0     0     5000.0000   870     4569.0000      Cuts: 14     1996    9.43%
      0     0     5000.0000   850     4569.0000   ZeroHalf: 7     2011    9.43%
      0     0     5000.0000   834     4569.0000  ZeroHalf: 11     2050    9.43%
*     0+    0                         4576.0000     5000.0000             9.27%
      0     0        cutoff           4576.0000     5000.0000     2050    9.27%
      0     0     5000.0000   792     4576.0000      Cuts: 22     2097    9.27%
      0     0     5000.0000   793     4576.0000  ZeroHalf: 10     2111    9.27%
*     0+    0                         4818.0000     5000.0000             3.78%
*     0+    0                         4906.0000     5000.0000             1.92%
*     0+    0                         4910.0000     5000.0000             1.83%
*     0+    0                         4934.0000     5000.0000             1.34%
      0     0        cutoff           4934.0000     5000.0000     2111    1.34%
      0     2     5000.0000   793     4934.0000     5000.0000     2111    1.34%
Elapsed time = 6.27 sec. (12787.71 ticks, tree = 0.02 MB, solutions = 12)
     17    13     5000.0000   785     4934.0000     5000.0000     2512    1.34%
     64    39     5000.0000   777     4934.0000     5000.0000     4204    1.34%
    109    94     5000.0000   761     4934.0000     5000.0000     7073    1.34%
    163   141     5000.0000   727     4934.0000     5000.0000     9360    1.34%
    190   177     5000.0000   748     4934.0000     5000.0000    11107    1.34%
    215   198     5000.0000   732     4934.0000     5000.0000    15015    1.34%
    254   239     5000.0000   724     4934.0000     5000.0000    21754    1.34%
    290   263     5000.0000   692     4934.0000     5000.0000    23165    1.34%
*   305+  229                         4961.0000     5000.0000             0.79%
    311   291     5000.0000   604     4961.0000     5000.0000    24179    0.79%
    408   350     5000.0000   791     4961.0000     5000.0000    30685    0.79%
Elapsed time = 8.32 sec. (15962.39 ticks, tree = 25.14 MB, solutions = 14)
    577   549     5000.0000   551     4961.0000     5000.0000    40789    0.79%
    710   656     5000.0000   510     4961.0000     5000.0000    47869    0.79%
*   844+  694                         4968.0000     5000.0000             0.64%
    863   763     5000.0000   518     4968.0000     5000.0000    55972    0.64%
   1029   973     5000.0000   508     4968.0000     5000.0000    71526    0.64%
   1214  1052     5000.0000   469     4968.0000     5000.0000    75623    0.64%
*  1272+ 1089                         4980.0000     5000.0000             0.40%
   1374  1245     5000.0000   490     4980.0000     5000.0000    87604    0.40%
   1542  1425     5000.0000   518     4980.0000     5000.0000   108192    0.40%
   1701  1582     5000.0000   445     4980.0000     5000.0000   116558    0.40%
*  1753+ 1543                         5000.0000     5000.0000             0.00%
   1781  1521     5000.0000   460     5000.0000     5000.0000   113794    0.00%

Clique cuts applied:  85
Cover cuts applied:  1
Implied bound cuts applied:  54
Mixed integer rounding cuts applied:  39
Zero-half cuts applied:  60
Gomory fractional cuts applied:  1

Root node processing (before b&c):
  Real time             =    6.24 sec. (12741.52 ticks)
Parallel b&c, 8 threads:
  Real time             =    7.06 sec. (12333.20 ticks)
  Sync time (average)   =    1.19 sec.
  Wait time (average)   =    0.00 sec.
                          ------------
Total (root+branch&cut) =   13.30 sec. (25074.72 ticks)

<<< solve


OBJECTIVE: 5000

<<< post process


<<< done

